47
400
275	1
269	1
267	1
263	2
261	1
255	1
251	1
244	1
241	1
240	1
230	1
229	1
227	1
217	2
214	1
209	1
206	1
203	1
201	1
199	1
197	1
194	2
189	1
180	1
178	1
173	1
167	1
164	1
162	1
147	1
146	1
144	1
135	1
133	1
132	1
114	1
113	1
112	1
99	1
96	1
94	1
92	1
88	1
84	1
83	1
82	1
80	1
